
Gurobi 11.0.3 (mac64[arm], gurobi_cl) logging started Mon Nov  4 09:17:48 2024

Set parameter TimeLimit to value 600
Set parameter NoRelHeurTime to value 600
Set parameter LogFile to value "gurobi.log"
Using license file /Users/sakai/gurobi.lic
Restricted license - for non-production use only - expires 2025-11-24

Gurobi Optimizer version 11.0.3 build v11.0.3rc0 (mac64[arm] - Darwin 22.6.0 22H123)
Copyright (c) 2024, Gurobi Optimization, LLC

Read LP format model from file ../../../miplib2024_submission/instances.20241102/bnn_mnist_7_label9_adversarial_norm_inf.lp
Reading time = 0.10 seconds
: 1876 rows, 1295 columns, 399358 nonzeros

CPU model: Apple M1
Thread count: 8 physical cores, 8 logical processors, using up to 8 threads

Optimize a model with 1876 rows, 1295 columns and 399358 nonzeros
Model fingerprint: 0xa9f8459c
Variable types: 1 continuous, 1294 integer (1294 binary)
Coefficient statistics:
  Matrix range     [1e+00, 5e+02]
  Objective range  [1e+00, 1e+00]
  Bounds range     [1e+00, 1e+00]
  RHS range        [1e+00, 5e+02]
Presolve removed 99 rows and 88 columns
Presolve time: 0.23s
Presolved: 1777 rows, 1207 columns, 352650 nonzeros
Variable types: 0 continuous, 1207 integer (1190 binary)
Found heuristic solution: objective 207.0000000
Starting NoRel heuristic
Elapsed time for NoRel heuristic: 7s (best bound 0)
Elapsed time for NoRel heuristic: 18s (best bound 0)
Elapsed time for NoRel heuristic: 28s (best bound 0)
Elapsed time for NoRel heuristic: 41s (best bound 0)
Elapsed time for NoRel heuristic: 63s (best bound 0)
Elapsed time for NoRel heuristic: 96s (best bound 0)
Elapsed time for NoRel heuristic: 146s (best bound 0)
Elapsed time for NoRel heuristic: 215s (best bound 0)
Elapsed time for NoRel heuristic: 315s (best bound 0)
Elapsed time for NoRel heuristic: 431s (best bound 0)
Found heuristic solution: objective 192.0000000
Elapsed time for NoRel heuristic: 549s (best bound 0)
Elapsed time for NoRel heuristic: 573s (best bound 0)
Elapsed time for NoRel heuristic: 600s (best bound 0)
NoRel heuristic complete

Explored 0 nodes (0 simplex iterations) in 600.01 seconds (747.85 work units)
Thread count was 8 (of 8 available processors)

Solution count 2: 192 207 

Time limit reached
Best objective 1.920000000000e+02, best bound 0.000000000000e+00, gap 100.0000%

Wrote result file 'bnn_mnist_7_label9_adversarial_norm_inf.sol'

